diurno={1 ,2 ,3 ,4 ,5 ,6 ,7 ,8 ,9 ,10 ,11 ,12};
nocturno={0,13 ,14 ,15 };
sede = 15 ;
docentes = 4 ;
asignaturas = 12 ;
%falta=[false, false,false, false,false, false,false, false, false, false,false, false] ;
D=[|false, true, false, true 
|false, true, false, true 
|false, true, false, true 
|false, true, false, true 
|false, true, false, true 
|false, true, false, true 
|false, true, false, true 
|false, true, false, true 
|false, true, false, true 
|false, true, false, true 
|false, true, false, true 
|false, true, false, true 
|true, false, true, true 
|true, false, true, true 
|true, false, true, true 
|true, false, true, true 
|true, true, false, true 
|true, true, false, true 
|true, true, false, true 
|true, true, false, true 
|true, true, false, true 
|true, true, false, true 
|true, true, false, true 
|true, true, true, false 
|true, true, true, false 
|true, true, true, false 
|true, true, true, false 
|true, true, true, false 
|true, true, true, false 
|true, true, true, false 
|true, true, true, false 
|true, true, true, false 
|];
A=[|5 ,1 ,51 ,1 ,2 
|7 ,3 ,51 ,0 ,4 
|6 ,10 ,51 ,0 ,3 
|5 ,8 ,51 ,0 ,3 
|4 ,10 ,51 ,1 ,3 
|6 ,10 ,50 ,0 ,4 
|2 ,3 ,50 ,0 ,3 
|5 ,9 ,51 ,0 ,2 
|6 ,10 ,50 ,0 ,4 
|1 ,10 ,50 ,0 ,2 
|2 ,8 ,50 ,1 ,4 
|7 ,2 ,50 ,0 ,2 
|];
Ai=[5,4,3,3,3,4,5,2,4,2,4,5];
Da=[|1 ,9 ,2 ,11 ,0 
|5 ,3 ,10 ,0 ,0 
|8 ,6 ,4 ,0 ,0 
|7 ,12 ,0 ,0 ,0 
|];
Ad=[1,1,2,3,2,3,4,3,1,2,1,4];
H = 32 ;